15
2 0 9
4 1 11
4 2 4
5 2 6
6 0 7
6 1 2
6 3 5
6 4 2
7 5 6
7 6 2
8 1 13
8 2 10
8 4 14
8 6 10
8 7 5
9 0 10
9 2 4
9 6 14
9 8 8
10 5 1
10 6 8
10 7 7
11 0 12
11 1 13
11 2 8
11 4 3
11 5 9
12 0 6
12 1 14
12 2 12
12 3 6
12 6 9
13 0 7
13 1 2
13 7 6
13 9 9
13 10 11
14 1 12
14 2 4
14 8 5
14 9 10
14 10 7
14 11 14
14 12 13
